100
30
2
12
20
29
7
32
13
31
3
7
18
17
9
13
12
16
12
8
10
17
12
16
4
26
9
16
10
12
8
16
19
25
13
10
2
7
32
30
31
30
32
17
20
4
5
5
20
26
32
15
22
12
27
9
16
3
3
28
29
26
25
12
18
1
25
10
16
21
9
27
6
5
14
16
1
3
9
18
1
30
23
25
32
31
6
24
28
1
19
11
24
19
4
30
27
11
1
18
4
27